words_hard_train/1439.qaiger
aag 98 16 0 1 82
2
4
8
12
16
20
24
32
34
38
42
46
50
54
72
120
197
6 3 5
10 6 9
14 10 13
18 14 17
22 18 21
26 22 25
28 23 24
30 27 29
36 33 35
40 36 39
44 40 43
48 44 47
52 49 51
56 53 55
58 52 54
60 57 59
62 15 16
64 63 19
66 61 65
68 48 55
70 69 51
74 71 73
76 70 72
78 75 77
80 19 20
82 81 23
84 79 83
86 67 85
88 45 51
90 89 47
92 88 46
94 91 93
96 11 12
98 97 15
100 94 98
102 60 64
104 101 103
106 37 51
108 107 38
110 106 39
112 109 111
114 2 4
116 115 7
118 113 116
122 121 32
124 122 3
126 125 37
128 32 50
130 129 35
132 128 34
134 131 133
136 123 2
138 134 137
140 126 139
142 112 117
144 140 143
146 119 145
148 41 51
150 149 43
152 148 42
154 151 153
156 7 8
158 157 11
160 154 158
162 146 161
164 155 159
166 163 165
168 95 99
170 166 169
172 104 171
174 86 173
176 78 82
178 175 177
180 30 178
182 180 51
184 31 179
186 68 73
188 185 187
190 183 189
192 184 50
194 192 186
196 190 195
i0 2 y1[1]
i1 2 y1[2]
i2 2 y1[3]
i3 2 y1[4]
i4 2 y1[5]
i5 2 y1[6]
i6 2 y1[7]
i7 1 x2[0]
i8 1 x2[1]
i9 1 x2[2]
i10 1 x2[3]
i11 1 x2[4]
i12 1 x2[7]
i13 1 x2[5]
i14 1 x2[6]
i15 2 y1[0]
o0 bv[0]
c
simplified
  <
    subtract
      1
      xor
        2 y1
        1
    abs
      1 x2
