words_hard_train/1439.qaiger.qdimacs
p cnf 98 247
a 36 16 17 19 21 23 25 27 0
e 1 2 3 4 5 6 7 8 9 10 11 12 13 14 15 18 20 22 24 26 28 29 30 31 32 33 34 35 37 38 39 40 41 42 43 44 45 46 47 48 49 50 51 52 53 54 55 56 57 58 59 60 61 62 63 64 65 66 67 68 69 70 71 72 73 74 75 76 77 78 79 80 81 82 83 84 85 86 87 88 89 90 91 92 93 94 95 96 97 98 0
1 2 3 0
-1 -3 0
-2 -3 0
-3 4 5 0
3 -5 0
-4 -5 0
-5 6 7 0
5 -7 0
-6 -7 0
-7 8 9 0
7 -9 0
-8 -9 0
-9 10 11 0
9 -11 0
-10 -11 0
-11 12 13 0
11 -13 0
-12 -13 0
11 -12 14 0
-11 -14 0
12 -14 0
13 14 15 0
-13 -15 0
-14 -15 0
16 17 18 0
-16 -18 0
-17 -18 0
-18 19 20 0
18 -20 0
-19 -20 0
-20 21 22 0
20 -22 0
-21 -22 0
-22 23 24 0
22 -24 0
-23 -24 0
24 25 26 0
-24 -26 0
-25 -26 0
26 27 28 0
-26 -28 0
-27 -28 0
-26 -27 29 0
26 -29 0
27 -29 0
28 29 30 0
-28 -30 0
-29 -30 0
7 -8 31 0
-7 -31 0
8 -31 0
31 9 32 0
-31 -32 0
-9 -32 0
30 32 33 0
-30 -33 0
-32 -33 0
-24 27 34 0
24 -34 0
-27 -34 0
34 25 35 0
-34 -35 0
-25 -35 0
35 36 37 0
-35 -37 0
-36 -37 0
-35 -36 38 0
35 -38 0
36 -38 0
37 38 39 0
-37 -39 0
-38 -39 0
9 -10 40 0
-9 -40 0
10 -40 0
40 11 41 0
-40 -41 0
-11 -41 0
39 41 42 0
-39 -42 0
-41 -42 0
33 42 43 0
-33 -43 0
-42 -43 0
22 25 44 0
-22 -44 0
-25 -44 0
44 23 45 0
-44 -45 0
-23 -45 0
-44 -23 46 0
44 -46 0
23 -46 0
45 46 47 0
-45 -47 0
-46 -47 0
5 -6 48 0
-5 -48 0
6 -48 0
48 7 49 0
-48 -49 0
-7 -49 0
-47 -49 50 0
47 -50 0
49 -50 0
-30 -32 51 0
30 -51 0
32 -51 0
50 51 52 0
-50 -52 0
-51 -52 0
18 25 53 0
-18 -53 0
-25 -53 0
53 -19 54 0
-53 -54 0
19 -54 0
-53 19 55 0
53 -55 0
-19 -55 0
54 55 56 0
-54 -56 0
-55 -56 0
-1 -2 57 0
1 -57 0
2 -57 0
57 3 58 0
-57 -58 0
-3 -58 0
56 -58 59 0
-56 -59 0
58 -59 0
60 -16 61 0
-60 -61 0
16 -61 0
-61 1 62 0
61 -62 0
-1 -62 0
62 18 63 0
-62 -63 0
-18 -63 0
-16 -25 64 0
16 -64 0
25 -64 0
64 17 65 0
-64 -65 0
-17 -65 0
-64 -17 66 0
64 -66 0
17 -66 0
65 66 67 0
-65 -67 0
-66 -67 0
61 -1 68 0
-61 -68 0
1 -68 0
-67 68 69 0
67 -69 0
-68 -69 0
-63 69 70 0
63 -70 0
-69 -70 0
-56 58 71 0
56 -71 0
-58 -71 0
-70 71 72 0
70 -72 0
-71 -72 0
59 72 73 0
-59 -73 0
-72 -73 0
20 25 74 0
-20 -74 0
-25 -74 0
74 21 75 0
-74 -75 0
-21 -75 0
-74 -21 76 0
74 -76 0
21 -76 0
75 76 77 0
-75 -77 0
-76 -77 0
3 -4 78 0
-3 -78 0
4 -78 0
78 5 79 0
-78 -79 0
-5 -79 0
-77 -79 80 0
77 -80 0
79 -80 0
-73 80 81 0
73 -81 0
-80 -81 0
77 79 82 0
-77 -82 0
-79 -82 0
81 82 83 0
-81 -83 0
-82 -83 0
47 49 84 0
-47 -84 0
-49 -84 0
-83 84 85 0
83 -85 0
-84 -85 0
-52 85 86 0
52 -86 0
-85 -86 0
-43 86 87 0
43 -87 0
-86 -87 0
-39 -41 88 0
39 -88 0
41 -88 0
87 88 89 0
-87 -89 0
-88 -89 0
-15 -89 90 0
15 -90 0
89 -90 0
-90 25 91 0
90 -91 0
-25 -91 0
15 89 92 0
-15 -92 0
-89 -92 0
-34 36 93 0
34 -93 0
-36 -93 0
92 93 94 0
-92 -94 0
-93 -94 0
91 94 95 0
-91 -95 0
-94 -95 0
-92 -25 96 0
92 -96 0
25 -96 0
-96 -93 97 0
96 -97 0
93 -97 0
-95 97 98 0
95 -98 0
-97 -98 0
-98 0
